Read MPS format model from file dat/rmp/4node-base_32768_23.mps
Reading time = 2.43 seconds
: 32828 rows, 179472 columns, 6660212 nonzeros
Gurobi Optimizer version 9.0.0 build v9.0.0rc2 (linux64)
Optimize a model with 32828 rows, 179472 columns and 6660212 nonzeros
Model fingerprint: 0x6d70360e
Coefficient statistics:
  Matrix range     [2e-04, 2e+01]
  Objective range  [2e-03, 1e+04]
  Bounds range     [0e+00, 0e+00]
  RHS range        [1e+00, 8e+01]
Ordering time: 0.04s

Barrier statistics:
 AA' NZ     : 1.679e+06
 Factor NZ  : 2.084e+06 (roughly 100 MBytes of memory)
 Factor Ops : 1.347e+08 (less than 1 second per iteration)
 Threads    : 1

                  Objective                Residual
Iter       Primal          Dual         Primal    Dual     Compl     Time
   0   1.98175412e+07  0.00000000e+00  5.31e+02 2.40e+02  4.13e+04     2s
   1   3.74647427e+05 -1.72729706e+08  9.19e+00 9.41e+02  1.79e+03     2s
   2   4.95410182e+03 -4.77343716e+07  9.99e-04 1.10e+01  2.68e+02     2s
   3   8.65830143e+02 -1.04554229e+07  4.53e-05 1.80e+00  5.86e+01     3s
   4  -6.29415835e+01 -1.56453099e+06  1.25e-06 2.09e-01  8.76e+00     3s
   5  -2.73726545e+02 -3.42128383e+04  1.04e-07 2.36e-03  1.90e-01     4s
   6  -2.90680048e+02 -8.09616344e+02  1.12e-08 2.27e-05  2.90e-03     4s
   7  -3.58432031e+02 -5.85839064e+02  1.04e-07 3.41e-06  1.27e-03     5s
   8  -3.49053131e+02 -5.36709780e+02  1.39e-06 2.33e-06  1.05e-03     5s
   9  -3.87846842e+02 -4.72788123e+02  5.50e-06 2.95e-07  4.73e-04     6s
  10  -4.02745716e+02 -4.48013595e+02  6.56e-06 1.25e-07  2.52e-04     7s
  11  -4.12502785e+02 -4.36269785e+02  3.25e-06 5.16e-08  1.32e-04     7s
  12  -4.19101859e+02 -4.27923268e+02  9.74e-07 9.45e-09  4.92e-05     8s
  13  -4.20218011e+02 -4.26169110e+02  1.73e-06 3.71e-09  3.32e-05    10s
  14  -4.20219394e+02 -4.25552044e+02  2.28e-06 5.64e-10  2.97e-05    11s
  15  -4.20222424e+02 -4.25122964e+02  4.79e-06 1.55e-10  2.73e-05    12s
  16  -4.20228562e+02 -4.24935394e+02  5.44e-06 5.21e-11  2.62e-05    12s
  17  -4.20230724e+02 -4.24891592e+02  7.45e-06 3.32e-11  2.60e-05    13s
  18  -4.20234419e+02 -4.24879874e+02  1.57e-05 3.42e-11  2.59e-05    14s
  19  -4.20235372e+02 -4.24861339e+02  1.72e-05 2.87e-11  2.58e-05    14s
  20  -4.20237780e+02 -4.24838475e+02  2.32e-05 2.25e-11  2.56e-05    15s
  21  -4.20245648e+02 -4.24865896e+02  1.91e-05 1.46e-11  2.57e-05    16s
  22  -4.20249725e+02 -4.24852190e+02  2.63e-05 4.21e-11  2.56e-05    16s
  23  -4.20250494e+02 -4.24844909e+02  2.56e-05 6.38e-11  2.56e-05    17s
  24  -4.20251590e+02 -4.24842730e+02  4.25e-05 1.71e-11  2.56e-05    17s
  25  -4.20253790e+02 -4.24836748e+02  3.89e-05 7.48e-12  2.55e-05    18s
  26  -4.20270733e+02 -4.24833593e+02  6.06e-05 5.41e-11  2.54e-05    19s
  27  -4.20287308e+02 -4.24811130e+02  6.00e-05 1.31e-10  2.52e-05    20s
  28  -4.20311589e+02 -4.24797027e+02  6.79e-05 1.04e-10  2.50e-05    21s
  29  -4.20341780e+02 -4.24791918e+02  1.26e-04 7.48e-11  2.48e-05    21s
  30  -4.20374016e+02 -4.24793397e+02  2.93e-04 1.97e-10  2.46e-05    22s
  31  -4.21196321e+02 -4.24794733e+02  5.13e-04 6.44e-11  2.00e-05    23s
  32  -4.21663517e+02 -4.24821425e+02  4.16e-04 2.52e-11  1.76e-05    24s
  33  -4.22001338e+02 -4.24810090e+02  4.65e-04 1.47e-11  1.57e-05    24s
  34  -4.22345132e+02 -4.24804117e+02  5.59e-04 1.46e-11  1.37e-05    25s
  35  -4.22877184e+02 -4.24790081e+02  8.91e-04 1.46e-11  1.07e-05    25s
  36  -4.23870501e+02 -4.24786472e+02  1.26e-03 2.91e-11  5.04e-06    26s
  37  -4.23934538e+02 -4.24792057e+02  1.25e-03 1.46e-11  4.73e-06    26s
  38  -4.24118699e+02 -4.24788895e+02  8.69e-04 1.49e-11  3.70e-06    27s
  39  -4.24593103e+02 -4.24779255e+02  5.76e-04 1.46e-11  1.01e-06    27s
  40  -4.24753421e+02 -4.24775706e+02  1.80e-04 2.91e-11  1.16e-07    28s
  41  -4.24774698e+02 -4.24775470e+02  5.86e-06 1.46e-11  4.13e-09    28s
  42  -4.24775407e+02 -4.24775469e+02  4.76e-07 1.46e-11  3.40e-10    29s
  43  -4.24775469e+02 -4.24775469e+02  7.67e-09 1.46e-11  1.41e-13    29s

Barrier solved model in 43 iterations and 28.96 seconds
Optimal objective -4.24775469e+02

Solve time: 28.973831765
Barrier iterations: 43
